(set-info :smt-lib-version 2.6)
(set-logic UF)
(set-info :source |Benchmarks from the paper: "Extending Sledgehammer with SMT Solvers" by Jasmin Blanchette, Sascha Bohme, and Lawrence C. Paulson, CADE 2011.  Translated to SMT2 by Andrew Reynolds and Morgan Deters.|)
(set-info :category "industrial")
(set-info :status sat)
(declare-sort S1 0)
(declare-sort S2 0)
(declare-sort S3 0)
(declare-sort S4 0)
(declare-sort S5 0)
(declare-sort S6 0)
(declare-sort S7 0)
(declare-sort S8 0)
(declare-sort S9 0)
(declare-sort S10 0)
(declare-sort S11 0)
(declare-sort S12 0)
(declare-sort S13 0)
(declare-sort S14 0)
(declare-sort S15 0)
(declare-sort S16 0)
(declare-sort S17 0)
(declare-sort S18 0)
(declare-sort S19 0)
(declare-sort S20 0)
(declare-sort S21 0)
(declare-sort S22 0)
(declare-sort S23 0)
(declare-sort S24 0)
(declare-sort S25 0)
(declare-sort S26 0)
(declare-sort S27 0)
(declare-sort S28 0)
(declare-sort S29 0)
(declare-sort S30 0)
(declare-sort S31 0)
(declare-sort S32 0)
(declare-sort S33 0)
(declare-sort S34 0)
(declare-sort S35 0)
(declare-sort S36 0)
(declare-sort S37 0)
(declare-sort S38 0)
(declare-sort S39 0)
(declare-sort S40 0)
(declare-sort S41 0)
(declare-sort S42 0)
(declare-sort S43 0)
(declare-sort S44 0)
(declare-sort S45 0)
(declare-sort S46 0)
(declare-sort S47 0)
(declare-sort S48 0)
(declare-sort S49 0)
(declare-sort S50 0)
(declare-sort S51 0)
(declare-sort S52 0)
(declare-sort S53 0)
(declare-sort S54 0)
(declare-sort S55 0)
(declare-sort S56 0)
(declare-sort S57 0)
(declare-sort S58 0)
(declare-sort S59 0)
(declare-sort S60 0)
(declare-sort S61 0)
(declare-sort S62 0)
(declare-sort S63 0)
(declare-sort S64 0)
(declare-sort S65 0)
(declare-sort S66 0)
(declare-sort S67 0)
(declare-sort S68 0)
(declare-sort S69 0)
(declare-sort S70 0)
(declare-sort S71 0)
(declare-sort S72 0)
(declare-sort S73 0)
(declare-sort S74 0)
(declare-sort S75 0)
(declare-sort S76 0)
(declare-sort S77 0)
(declare-sort S78 0)
(declare-sort S79 0)
(declare-sort S80 0)
(declare-sort S81 0)
(declare-sort S82 0)
(declare-sort S83 0)
(declare-sort S84 0)
(declare-sort S85 0)
(declare-fun f1 () S1)
(declare-fun f2 () S1)
(declare-fun f3 (S3 S2) S1)
(declare-fun f4 () S3)
(declare-fun f5 (S5 S2) S2)
(declare-fun f6 (S6 S2) S5)
(declare-fun f7 () S6)
(declare-fun f8 (S7 S4) S2)
(declare-fun f9 (S8 S4) S7)
(declare-fun f10 () S8)
(declare-fun f11 () S4)
(declare-fun f12 (S9 S10) S1)
(declare-fun f13 (S11 S4) S9)
(declare-fun f14 (S12 S2) S11)
(declare-fun f15 () S12)
(declare-fun f16 (S13) S10)
(declare-fun f17 (S14 S15) S13)
(declare-fun f18 () S14)
(declare-fun f19 () S15)
(declare-fun f20 (S10 S9) S1)
(declare-fun f21 (S16 S13) S10)
(declare-fun f22 (S10) S16)
(declare-fun f23 (S17 S18) S1)
(declare-fun f24 (S19 S15) S17)
(declare-fun f25 (S17) S19)
(declare-fun f26 (S18 S17) S1)
(declare-fun f27 (S15) S17)
(declare-fun f28 (S20 S22) S1)
(declare-fun f29 (S23 S21) S20)
(declare-fun f30 (S20) S23)
(declare-fun f31 (S22 S20) S1)
(declare-fun f32 (S21) S20)
(declare-fun f33 (S24 S21) S1)
(declare-fun f34 (S26 S25) S24)
(declare-fun f35 (S24) S26)
(declare-fun f36 (S21 S24) S1)
(declare-fun f37 (S25) S24)
(declare-fun f38 (S27 S4) S3)
(declare-fun f39 (S3) S27)
(declare-fun f40 (S2 S3) S1)
(declare-fun f41 (S4) S3)
(declare-fun f42 (S28 S4) S1)
(declare-fun f43 (S29 S2) S28)
(declare-fun f44 (S30 S2) S29)
(declare-fun f45 () S30)
(declare-fun f46 () S29)
(declare-fun f47 (S18 S4) S1)
(declare-fun f48 () S18)
(declare-fun f49 (S31 S4) S4)
(declare-fun f50 (S32 S2) S31)
(declare-fun f51 () S32)
(declare-fun f52 () S6)
(declare-fun f53 () S2)
(declare-fun f54 () S6)
(declare-fun f55 () S2)
(declare-fun f56 (S33 S3) S2)
(declare-fun f57 () S33)
(declare-fun f58 (S3) S3)
(declare-fun f59 () S7)
(declare-fun f60 (S34 S15) S4)
(declare-fun f61 (S35 S36) S34)
(declare-fun f62 () S35)
(declare-fun f63 () S36)
(declare-fun f64 (S37 S15) S15)
(declare-fun f65 (S38 S17) S37)
(declare-fun f66 () S38)
(declare-fun f67 (S39 S30) S17)
(declare-fun f68 (S40 S30) S39)
(declare-fun f69 (S29) S40)
(declare-fun f70 () S4)
(declare-fun f71 () S13)
(declare-fun f72 (S3) S1)
(declare-fun f73 () S3)
(declare-fun f74 (S41 S4) S31)
(declare-fun f75 () S41)
(declare-fun f76 () S41)
(declare-fun f77 (S17) S17)
(declare-fun f78 (S42 S13) S13)
(declare-fun f79 (S43 S10) S42)
(declare-fun f80 () S43)
(declare-fun f81 (S10) S10)
(declare-fun f82 (S44 S3) S31)
(declare-fun f83 () S44)
(declare-fun f84 (S45 S21) S21)
(declare-fun f85 (S46 S20) S45)
(declare-fun f86 () S46)
(declare-fun f87 (S20) S20)
(declare-fun f88 (S47 S25) S25)
(declare-fun f89 (S48 S24) S47)
(declare-fun f90 () S48)
(declare-fun f91 (S24) S24)
(declare-fun f92 (S49 S18) S37)
(declare-fun f93 () S49)
(declare-fun f94 (S50 S22) S45)
(declare-fun f95 () S50)
(declare-fun f96 (S51 S21) S47)
(declare-fun f97 () S51)
(declare-fun f98 (S52 S9) S42)
(declare-fun f99 () S52)
(declare-fun f100 (S36 S18) S2)
(declare-fun f101 (S54 S4) S13)
(declare-fun f102 (S55 S53) S54)
(declare-fun f103 () S55)
(declare-fun f104 (S53 S2) S9)
(declare-fun f105 (S57 S4) S15)
(declare-fun f106 (S58 S56) S57)
(declare-fun f107 () S58)
(declare-fun f108 (S56 S2) S18)
(declare-fun f109 (S60 S13) S4)
(declare-fun f110 (S61 S59) S60)
(declare-fun f111 () S61)
(declare-fun f112 (S59 S9) S2)
(declare-fun f113 (S63 S13) S25)
(declare-fun f114 (S64 S62) S63)
(declare-fun f115 () S64)
(declare-fun f116 (S62 S9) S21)
(declare-fun f117 (S66 S15) S25)
(declare-fun f118 (S67 S65) S66)
(declare-fun f119 () S67)
(declare-fun f120 (S65 S18) S21)
(declare-fun f121 (S69 S13) S21)
(declare-fun f122 (S70 S68) S69)
(declare-fun f123 () S70)
(declare-fun f124 (S68 S9) S22)
(declare-fun f125 (S72 S15) S21)
(declare-fun f126 (S73 S71) S72)
(declare-fun f127 () S73)
(declare-fun f128 (S71 S18) S22)
(declare-fun f129 (S75 S21) S13)
(declare-fun f130 (S76 S74) S75)
(declare-fun f131 () S76)
(declare-fun f132 (S74 S22) S9)
(declare-fun f133 (S78 S21) S15)
(declare-fun f134 (S79 S77) S78)
(declare-fun f135 () S79)
(declare-fun f136 (S77 S22) S18)
(declare-fun f137 (S81 S25) S13)
(declare-fun f138 (S82 S80) S81)
(declare-fun f139 () S82)
(declare-fun f140 (S80 S21) S9)
(declare-fun f141 (S84 S25) S15)
(declare-fun f142 (S85 S83) S84)
(declare-fun f143 () S85)
(declare-fun f144 (S83 S21) S18)
(declare-fun f145 (S17) S1)
(declare-fun f146 (S10) S1)
(declare-fun f147 (S20) S1)
(declare-fun f148 (S24) S1)
(declare-fun f149 () S2)
(declare-fun f150 () S15)
(declare-fun f151 () S17)
(declare-fun f152 () S10)
(declare-fun f153 () S25)
(declare-fun f154 () S24)
(declare-fun f155 () S21)
(declare-fun f156 () S20)
(declare-fun f157 () S4)
(assert (not (= f1 f2)))
(assert (forall ((?v0 S2)) (= (= (f3 f4 ?v0) f1) (exists ((?v1 S4) (?v2 S2)) (and (= ?v0 (f5 (f6 f7 ?v2) (f8 (f9 f10 ?v1) f11))) (= (f12 (f13 (f14 f15 ?v2) ?v1) (f16 (f17 f18 f19))) f1))))))
(assert (forall ((?v0 S10) (?v1 S13) (?v2 S9)) (= (= (f20 (f21 (f22 ?v0) ?v1) ?v2) f1) (and (= (f12 ?v2 (f16 ?v1)) f1) (= (f20 ?v0 ?v2) f1)))))
(assert (forall ((?v0 S17) (?v1 S15) (?v2 S18)) (= (= (f23 (f24 (f25 ?v0) ?v1) ?v2) f1) (and (= (f26 ?v2 (f27 ?v1)) f1) (= (f23 ?v0 ?v2) f1)))))
(assert (forall ((?v0 S20) (?v1 S21) (?v2 S22)) (= (= (f28 (f29 (f30 ?v0) ?v1) ?v2) f1) (and (= (f31 ?v2 (f32 ?v1)) f1) (= (f28 ?v0 ?v2) f1)))))
(assert (forall ((?v0 S24) (?v1 S25) (?v2 S21)) (= (= (f33 (f34 (f35 ?v0) ?v1) ?v2) f1) (and (= (f36 ?v2 (f37 ?v1)) f1) (= (f33 ?v0 ?v2) f1)))))
(assert (forall ((?v0 S3) (?v1 S4) (?v2 S2)) (= (= (f3 (f38 (f39 ?v0) ?v1) ?v2) f1) (and (= (f40 ?v2 (f41 ?v1)) f1) (= (f3 ?v0 ?v2) f1)))))
(assert (forall ((?v0 S2) (?v1 S2) (?v2 S4)) (= (= (f42 (f43 (f44 f45 ?v0) ?v1) ?v2) f1) true)))
(assert (forall ((?v0 S2) (?v1 S4)) (= (= (f42 (f43 f46 ?v0) ?v1) f1) false)))
(assert (not (= (f47 f48 (f49 (f50 f51 (f5 (f6 f7 (f5 (f6 f52 f53) (f5 (f6 f54 (f5 (f6 f7 f55) (f56 f57 (f58 f4)))) (f8 f59 (f60 (f61 f62 f63) (f64 (f65 f66 (f67 (f68 (f69 f46) f45) f45)) f19)))))) (f8 (f9 f10 f70) f11))) f11)) f1)))
(assert (= (f12 (f13 (f14 f15 f53) f70) (f16 (f17 f18 f19))) f1))
(assert (= (f47 f48 (f49 (f50 f51 f55) f11)) f1))
(assert (= (f56 f57 (f58 f4)) (f5 (f6 f7 f53) (f8 (f9 f10 f70) f11))))
(assert (not (= (f17 f18 f19) f71)))
(assert (let ((?v_0 (f58 f4))) (= (f40 (f56 f57 ?v_0) ?v_0) f1)))
(assert (= (f26 f48 (f27 f19)) f1))
(assert (=> (forall ((?v0 S2) (?v1 S4)) (=> (= (f12 (f13 (f14 f15 ?v0) ?v1) (f16 (f17 f18 f19))) f1) (=> (= (f56 f57 (f58 f4)) (f5 (f6 f7 ?v0) (f8 (f9 f10 ?v1) f11))) false))) false))
(assert (forall ((?v0 S18)) (=> (= (f26 ?v0 (f27 f19)) f1) (= (f47 ?v0 (f49 (f50 f51 f55) f11)) f1))))
(assert (exists ((?v0 S2)) (forall ((?v1 S18)) (=> (= (f26 ?v1 (f27 f19)) f1) (= (f47 ?v1 (f49 (f50 f51 ?v0) f11)) f1)))))
(assert (= (f72 (f58 f4)) f1))
(assert (not (= (f58 f4) f73)))
(assert (forall ((?v0 S4) (?v1 S4) (?v2 S4)) (= (f8 (f9 f10 (f49 (f74 f75 ?v0) ?v1)) ?v2) (f5 (f6 f7 (f8 (f9 f10 ?v0) ?v2)) (f8 (f9 f10 ?v1) ?v2)))))
(assert (forall ((?v0 S4) (?v1 S4) (?v2 S4)) (= (f8 (f9 f10 (f49 (f74 f76 ?v0) ?v1)) ?v2) (f5 (f6 f52 (f8 (f9 f10 ?v0) ?v2)) (f8 (f9 f10 ?v1) ?v2)))))
(assert (forall ((?v0 S2) (?v1 S2) (?v2 S2)) (let ((?v_0 (f6 f7 ?v0))) (= (f5 (f6 f54 (f5 ?v_0 (f5 (f6 f54 ?v1) ?v2))) ?v2) (f5 (f6 f54 (f5 ?v_0 ?v1)) ?v2)))))
(assert (forall ((?v0 S2) (?v1 S2) (?v2 S2)) (= (f5 (f6 f54 (f5 (f6 f7 (f5 (f6 f54 ?v0) ?v1)) ?v2)) ?v1) (f5 (f6 f54 (f5 (f6 f7 ?v0) ?v2)) ?v1))))
(assert (forall ((?v0 S17) (?v1 S15)) (= (f27 (f64 (f65 f66 ?v0) ?v1)) (f77 (f24 (f25 ?v0) ?v1)))))
(assert (forall ((?v0 S10) (?v1 S13)) (= (f16 (f78 (f79 f80 ?v0) ?v1)) (f81 (f21 (f22 ?v0) ?v1)))))
(assert (forall ((?v0 S3) (?v1 S4)) (= (f41 (f49 (f82 f83 ?v0) ?v1)) (f58 (f38 (f39 ?v0) ?v1)))))
(assert (forall ((?v0 S20) (?v1 S21)) (= (f32 (f84 (f85 f86 ?v0) ?v1)) (f87 (f29 (f30 ?v0) ?v1)))))
(assert (forall ((?v0 S24) (?v1 S25)) (= (f37 (f88 (f89 f90 ?v0) ?v1)) (f91 (f34 (f35 ?v0) ?v1)))))
(assert (forall ((?v0 S17) (?v1 S15)) (= (= (f64 (f65 f66 ?v0) ?v1) ?v1) (forall ((?v2 S18)) (=> (= (f26 ?v2 (f27 ?v1)) f1) (= (f23 ?v0 ?v2) f1))))))
(assert (forall ((?v0 S10) (?v1 S13)) (= (= (f78 (f79 f80 ?v0) ?v1) ?v1) (forall ((?v2 S9)) (=> (= (f12 ?v2 (f16 ?v1)) f1) (= (f20 ?v0 ?v2) f1))))))
(assert (forall ((?v0 S3) (?v1 S4)) (= (= (f49 (f82 f83 ?v0) ?v1) ?v1) (forall ((?v2 S2)) (=> (= (f40 ?v2 (f41 ?v1)) f1) (= (f3 ?v0 ?v2) f1))))))
(assert (forall ((?v0 S20) (?v1 S21)) (= (= (f84 (f85 f86 ?v0) ?v1) ?v1) (forall ((?v2 S22)) (=> (= (f31 ?v2 (f32 ?v1)) f1) (= (f28 ?v0 ?v2) f1))))))
(assert (forall ((?v0 S24) (?v1 S25)) (= (= (f88 (f89 f90 ?v0) ?v1) ?v1) (forall ((?v2 S21)) (=> (= (f36 ?v2 (f37 ?v1)) f1) (= (f33 ?v0 ?v2) f1))))))
(assert (forall ((?v0 S17) (?v1 S18) (?v2 S15)) (let ((?v_1 (f65 f66 ?v0)) (?v_0 (f92 f93 ?v1))) (let ((?v_2 (f64 ?v_1 ?v2))) (= (f64 ?v_1 (f64 ?v_0 ?v2)) (ite (= (f23 ?v0 ?v1) f1) (f64 ?v_0 ?v_2) ?v_2))))))
(assert (forall ((?v0 S20) (?v1 S22) (?v2 S21)) (let ((?v_1 (f85 f86 ?v0)) (?v_0 (f94 f95 ?v1))) (let ((?v_2 (f84 ?v_1 ?v2))) (= (f84 ?v_1 (f84 ?v_0 ?v2)) (ite (= (f28 ?v0 ?v1) f1) (f84 ?v_0 ?v_2) ?v_2))))))
(assert (forall ((?v0 S24) (?v1 S21) (?v2 S25)) (let ((?v_1 (f89 f90 ?v0)) (?v_0 (f96 f97 ?v1))) (let ((?v_2 (f88 ?v_1 ?v2))) (= (f88 ?v_1 (f88 ?v_0 ?v2)) (ite (= (f33 ?v0 ?v1) f1) (f88 ?v_0 ?v_2) ?v_2))))))
(assert (forall ((?v0 S3) (?v1 S2) (?v2 S4)) (let ((?v_1 (f82 f83 ?v0)) (?v_0 (f50 f51 ?v1))) (let ((?v_2 (f49 ?v_1 ?v2))) (= (f49 ?v_1 (f49 ?v_0 ?v2)) (ite (= (f3 ?v0 ?v1) f1) (f49 ?v_0 ?v_2) ?v_2))))))
(assert (forall ((?v0 S10) (?v1 S9) (?v2 S13)) (let ((?v_1 (f79 f80 ?v0)) (?v_0 (f98 f99 ?v1))) (let ((?v_2 (f78 ?v_1 ?v2))) (= (f78 ?v_1 (f78 ?v_0 ?v2)) (ite (= (f20 ?v0 ?v1) f1) (f78 ?v_0 ?v_2) ?v_2))))))
(assert (forall ((?v0 S36) (?v1 S15) (?v2 S36)) (= (= (f60 (f61 f62 ?v0) ?v1) (f60 (f61 f62 ?v2) ?v1)) (forall ((?v3 S18)) (=> (= (f26 ?v3 (f27 ?v1)) f1) (= (f100 ?v0 ?v3) (f100 ?v2 ?v3)))))))
(assert (forall ((?v0 S53) (?v1 S4) (?v2 S53)) (= (= (f101 (f102 f103 ?v0) ?v1) (f101 (f102 f103 ?v2) ?v1)) (forall ((?v3 S2)) (=> (= (f40 ?v3 (f41 ?v1)) f1) (= (f104 ?v0 ?v3) (f104 ?v2 ?v3)))))))
(assert (forall ((?v0 S56) (?v1 S4) (?v2 S56)) (= (= (f105 (f106 f107 ?v0) ?v1) (f105 (f106 f107 ?v2) ?v1)) (forall ((?v3 S2)) (=> (= (f40 ?v3 (f41 ?v1)) f1) (= (f108 ?v0 ?v3) (f108 ?v2 ?v3)))))))
(assert (forall ((?v0 S59) (?v1 S13) (?v2 S59)) (= (= (f109 (f110 f111 ?v0) ?v1) (f109 (f110 f111 ?v2) ?v1)) (forall ((?v3 S9)) (=> (= (f12 ?v3 (f16 ?v1)) f1) (= (f112 ?v0 ?v3) (f112 ?v2 ?v3)))))))
(assert (forall ((?v0 S62) (?v1 S13) (?v2 S62)) (= (= (f113 (f114 f115 ?v0) ?v1) (f113 (f114 f115 ?v2) ?v1)) (forall ((?v3 S9)) (=> (= (f12 ?v3 (f16 ?v1)) f1) (= (f116 ?v0 ?v3) (f116 ?v2 ?v3)))))))
(assert (forall ((?v0 S65) (?v1 S15) (?v2 S65)) (= (= (f117 (f118 f119 ?v0) ?v1) (f117 (f118 f119 ?v2) ?v1)) (forall ((?v3 S18)) (=> (= (f26 ?v3 (f27 ?v1)) f1) (= (f120 ?v0 ?v3) (f120 ?v2 ?v3)))))))
(assert (forall ((?v0 S68) (?v1 S13) (?v2 S68)) (= (= (f121 (f122 f123 ?v0) ?v1) (f121 (f122 f123 ?v2) ?v1)) (forall ((?v3 S9)) (=> (= (f12 ?v3 (f16 ?v1)) f1) (= (f124 ?v0 ?v3) (f124 ?v2 ?v3)))))))
(assert (forall ((?v0 S71) (?v1 S15) (?v2 S71)) (= (= (f125 (f126 f127 ?v0) ?v1) (f125 (f126 f127 ?v2) ?v1)) (forall ((?v3 S18)) (=> (= (f26 ?v3 (f27 ?v1)) f1) (= (f128 ?v0 ?v3) (f128 ?v2 ?v3)))))))
(assert (forall ((?v0 S74) (?v1 S21) (?v2 S74)) (= (= (f129 (f130 f131 ?v0) ?v1) (f129 (f130 f131 ?v2) ?v1)) (forall ((?v3 S22)) (=> (= (f31 ?v3 (f32 ?v1)) f1) (= (f132 ?v0 ?v3) (f132 ?v2 ?v3)))))))
(assert (forall ((?v0 S77) (?v1 S21) (?v2 S77)) (= (= (f133 (f134 f135 ?v0) ?v1) (f133 (f134 f135 ?v2) ?v1)) (forall ((?v3 S22)) (=> (= (f31 ?v3 (f32 ?v1)) f1) (= (f136 ?v0 ?v3) (f136 ?v2 ?v3)))))))
(assert (forall ((?v0 S80) (?v1 S25) (?v2 S80)) (= (= (f137 (f138 f139 ?v0) ?v1) (f137 (f138 f139 ?v2) ?v1)) (forall ((?v3 S21)) (=> (= (f36 ?v3 (f37 ?v1)) f1) (= (f140 ?v0 ?v3) (f140 ?v2 ?v3)))))))
(assert (forall ((?v0 S83) (?v1 S25) (?v2 S83)) (= (= (f141 (f142 f143 ?v0) ?v1) (f141 (f142 f143 ?v2) ?v1)) (forall ((?v3 S21)) (=> (= (f36 ?v3 (f37 ?v1)) f1) (= (f144 ?v0 ?v3) (f144 ?v2 ?v3)))))))
(assert (forall ((?v0 S36) (?v1 S18) (?v2 S15)) (let ((?v_0 (f61 f62 ?v0))) (= (f60 ?v_0 (f64 (f92 f93 ?v1) ?v2)) (f49 (f50 f51 (f100 ?v0 ?v1)) (f60 ?v_0 ?v2))))))
(assert (forall ((?v0 S71) (?v1 S18) (?v2 S15)) (let ((?v_0 (f126 f127 ?v0))) (= (f125 ?v_0 (f64 (f92 f93 ?v1) ?v2)) (f84 (f94 f95 (f128 ?v0 ?v1)) (f125 ?v_0 ?v2))))))
(assert (forall ((?v0 S68) (?v1 S9) (?v2 S13)) (let ((?v_0 (f122 f123 ?v0))) (= (f121 ?v_0 (f78 (f98 f99 ?v1) ?v2)) (f84 (f94 f95 (f124 ?v0 ?v1)) (f121 ?v_0 ?v2))))))
(assert (forall ((?v0 S65) (?v1 S18) (?v2 S15)) (let ((?v_0 (f118 f119 ?v0))) (= (f117 ?v_0 (f64 (f92 f93 ?v1) ?v2)) (f88 (f96 f97 (f120 ?v0 ?v1)) (f117 ?v_0 ?v2))))))
(assert (forall ((?v0 S62) (?v1 S9) (?v2 S13)) (let ((?v_0 (f114 f115 ?v0))) (= (f113 ?v_0 (f78 (f98 f99 ?v1) ?v2)) (f88 (f96 f97 (f116 ?v0 ?v1)) (f113 ?v_0 ?v2))))))
(assert (forall ((?v0 S59) (?v1 S9) (?v2 S13)) (let ((?v_0 (f110 f111 ?v0))) (= (f109 ?v_0 (f78 (f98 f99 ?v1) ?v2)) (f49 (f50 f51 (f112 ?v0 ?v1)) (f109 ?v_0 ?v2))))))
(assert (forall ((?v0 S77) (?v1 S22) (?v2 S21)) (let ((?v_0 (f134 f135 ?v0))) (= (f133 ?v_0 (f84 (f94 f95 ?v1) ?v2)) (f64 (f92 f93 (f136 ?v0 ?v1)) (f133 ?v_0 ?v2))))))
(assert (forall ((?v0 S74) (?v1 S22) (?v2 S21)) (let ((?v_0 (f130 f131 ?v0))) (= (f129 ?v_0 (f84 (f94 f95 ?v1) ?v2)) (f78 (f98 f99 (f132 ?v0 ?v1)) (f129 ?v_0 ?v2))))))
(assert (forall ((?v0 S83) (?v1 S21) (?v2 S25)) (let ((?v_0 (f142 f143 ?v0))) (= (f141 ?v_0 (f88 (f96 f97 ?v1) ?v2)) (f64 (f92 f93 (f144 ?v0 ?v1)) (f141 ?v_0 ?v2))))))
(assert (forall ((?v0 S80) (?v1 S21) (?v2 S25)) (let ((?v_0 (f138 f139 ?v0))) (= (f137 ?v_0 (f88 (f96 f97 ?v1) ?v2)) (f78 (f98 f99 (f140 ?v0 ?v1)) (f137 ?v_0 ?v2))))))
(assert (forall ((?v0 S56) (?v1 S2) (?v2 S4)) (let ((?v_0 (f106 f107 ?v0))) (= (f105 ?v_0 (f49 (f50 f51 ?v1) ?v2)) (f64 (f92 f93 (f108 ?v0 ?v1)) (f105 ?v_0 ?v2))))))
(assert (forall ((?v0 S53) (?v1 S2) (?v2 S4)) (let ((?v_0 (f102 f103 ?v0))) (= (f101 ?v_0 (f49 (f50 f51 ?v1) ?v2)) (f78 (f98 f99 (f104 ?v0 ?v1)) (f101 ?v_0 ?v2))))))
(assert (forall ((?v0 S15)) (= (f145 (f27 ?v0)) f1)))
(assert (forall ((?v0 S13)) (= (f146 (f16 ?v0)) f1)))
(assert (forall ((?v0 S4)) (= (f72 (f41 ?v0)) f1)))
(assert (forall ((?v0 S21)) (= (f147 (f32 ?v0)) f1)))
(assert (forall ((?v0 S25)) (= (f148 (f37 ?v0)) f1)))
(assert (forall ((?v0 S18)) (=> (= (f26 ?v0 (f27 f19)) f1) (not (= (f100 f63 ?v0) f149)))))
(assert (=> (forall ((?v0 S2)) (=> (forall ((?v1 S18)) (=> (= (f26 ?v1 (f27 f19)) f1) (= (f47 ?v1 (f49 (f50 f51 ?v0) f11)) f1))) false)) false))
(assert (= (f27 f150) f151))
(assert (= (f16 f71) f152))
(assert (= (f37 f153) f154))
(assert (= (f32 f155) f156))
(assert (= (f41 f157) f73))
(assert (forall ((?v0 S4)) (= (f49 (f74 f76 f157) ?v0) ?v0)))
(assert (forall ((?v0 S15)) (= (= f151 (f27 ?v0)) (= ?v0 f150))))
(assert (forall ((?v0 S13)) (= (= f152 (f16 ?v0)) (= ?v0 f71))))
(assert (forall ((?v0 S25)) (= (= f154 (f37 ?v0)) (= ?v0 f153))))
(assert (forall ((?v0 S21)) (= (= f156 (f32 ?v0)) (= ?v0 f155))))
(assert (forall ((?v0 S4)) (= (= f73 (f41 ?v0)) (= ?v0 f157))))
(assert (forall ((?v0 S4)) (= (f49 (f74 f76 ?v0) f157) ?v0)))
(assert (forall ((?v0 S4)) (= (f49 (f74 f75 ?v0) f157) ?v0)))
(assert (forall ((?v0 S15)) (= (= (f27 ?v0) f151) (= ?v0 f150))))
(assert (forall ((?v0 S13)) (= (= (f16 ?v0) f152) (= ?v0 f71))))
(assert (forall ((?v0 S25)) (= (= (f37 ?v0) f154) (= ?v0 f153))))
(assert (forall ((?v0 S21)) (= (= (f32 ?v0) f156) (= ?v0 f155))))
(assert (forall ((?v0 S4)) (= (= (f41 ?v0) f73) (= ?v0 f157))))
(assert (forall ((?v0 S4) (?v1 S4) (?v2 S4)) (let ((?v_0 (f74 f76 ?v0))) (= (f49 (f74 f76 (f49 ?v_0 ?v1)) ?v2) (f49 ?v_0 (f49 (f74 f76 ?v1) ?v2))))))
(assert (forall ((?v0 S21) (?v1 S25)) (not (= (f88 (f96 f97 ?v0) ?v1) f153))))
(assert (forall ((?v0 S22) (?v1 S21)) (not (= (f84 (f94 f95 ?v0) ?v1) f155))))
(assert (forall ((?v0 S9) (?v1 S13)) (not (= (f78 (f98 f99 ?v0) ?v1) f71))))
(assert (forall ((?v0 S2) (?v1 S4)) (not (= (f49 (f50 f51 ?v0) ?v1) f157))))
(assert (forall ((?v0 S18) (?v1 S15)) (not (= (f64 (f92 f93 ?v0) ?v1) f150))))
(assert (forall ((?v0 S21) (?v1 S25)) (not (= f153 (f88 (f96 f97 ?v0) ?v1)))))
(assert (forall ((?v0 S22) (?v1 S21)) (not (= f155 (f84 (f94 f95 ?v0) ?v1)))))
(assert (forall ((?v0 S9) (?v1 S13)) (not (= f71 (f78 (f98 f99 ?v0) ?v1)))))
(assert (forall ((?v0 S2) (?v1 S4)) (not (= f157 (f49 (f50 f51 ?v0) ?v1)))))
(assert (forall ((?v0 S18) (?v1 S15)) (not (= f150 (f64 (f92 f93 ?v0) ?v1)))))
(check-sat)
(exit)
